17
59
2 43 5
2 44 6
2 45 7
2 46 8
2 47 9
3 0 10 15
3 1 11 16
3 2 12 17
3 3 13 18
3 4 14 19
7 5 11 11 12 13 14 30
9 10 6 10 12 20 21 22 23 24
9 11 7 10 13 20 21 22 23 24
9 12 8 10 14 20 21 22 23 24
9 13 9 10 15 20 21 22 23 24
17 14 5 27 28 29 30 31 32 33 34 35 36 20 21 22 23 24
17 6 27 28 29 30 31 32 33 34 35 36 20 21 22 23 24 25
17 7 27 28 29 30 31 32 33 34 35 36 20 21 22 23 24 26
17 8 27 28 29 30 31 32 33 34 35 36 20 21 22 23 24 27
17 9 27 28 29 30 31 32 33 34 35 36 20 21 22 23 24 28
15 11 12 13 14 15 16 17 18 19 21 21 22 23 24 29
14 20 11 12 13 14 15 16 17 18 19 20 22 31 36
14 21 11 12 13 14 15 16 17 18 19 20 23 32 37
14 22 11 12 13 14 15 16 17 18 19 20 24 33 38
14 23 11 12 13 14 15 16 17 18 19 20 25 34 39
14 24 16 49 50 51 52 53 54 55 56 57 58 35 40
17 17 49 50 51 52 53 54 55 56 57 58 41 42 43 44 45 46
17 15 16 17 18 19 18 49 50 51 52 53 54 55 56 57 58 41
17 15 16 17 18 19 19 49 50 51 52 53 54 55 56 57 58 42
17 15 16 17 18 19 20 49 50 51 52 53 54 55 56 57 58 43
7 15 16 17 18 19 10 44
9 15 16 17 18 19 21 48 49 45
9 15 16 17 18 19 22 48 50 36
9 15 16 17 18 19 23 48 51 37
9 15 16 17 18 19 24 48 52 38
9 15 16 17 18 19 25 48 53 39
8 15 16 17 18 19 21 32 40
7 22 33 47 48 49 50 51
9 23 34 41 42 43 44 45 47 52
8 24 35 41 42 43 44 45 52
9 25 36 41 42 43 44 45 48 52
17 26 27 38 39 40 42 43 44 45 46 47 42 43 44 45 49 52
17 41 26 28 38 39 40 41 43 44 45 46 47 43 44 45 50 52
17 0 41 42 26 29 38 39 40 41 42 44 45 46 47 44 45 52
17 1 41 42 43 26 30 38 39 40 41 42 43 45 46 47 45 52
17 2 41 42 43 44 26 31 38 39 40 41 42 43 44 46 47 52
8 3 41 42 43 44 45 26 52
9 4 41 42 43 44 45 37 38 52
8 31 32 33 34 35 37 40 58
8 25 26 27 28 29 31 37 41
8 25 26 27 28 29 32 37 42
7 25 26 27 28 29 33 37
16 25 26 27 28 29 34 38 39 40 41 42 43 44 45 46 47
7 25 26 27 28 29 35 54
7 25 26 27 28 29 53 55
7 25 26 27 28 29 54 56
7 25 26 27 28 29 55 57
7 25 26 27 28 29 56 58
7 25 26 27 28 29 57 48
